n_res = 4;
rc = [ 49, 47, 45, 43 ];
n_tasks = 60;
d = [ 10, 7, 8, 8, 2, 9, 8, 3, 7, 4, 6, 2, 7, 1, 2, 2, 3, 8, 2, 1, 1, 5, 6, 5, 6, 5, 2, 7, 3, 3, 6, 3, 10, 8, 1, 4, 3, 5, 9, 3, 7, 2, 10, 4, 6, 1, 3, 7, 8, 2, 2, 3, 10, 9, 3, 4, 3, 5, 6, 7 ];
rr = [| 4, 8, 3, 5, 9, 5, 1, 7, 3, 7, 8, 5, 7, 6, 7, 3, 2, 4, 5, 4, 10, 5, 7, 7, 8, 8, 5, 3, 2, 6, 6, 8, 4, 9, 7, 7, 6, 5, 6, 3, 6, 8, 1, 9, 10, 2, 4, 9, 5, 7, 5, 9, 10, 7, 10, 3, 6, 5, 6, 10
      | 2, 5, 6, 7, 9, 4, 2, 1, 9, 10, 5, 6, 4, 8, 7, 3, 10, 6, 5, 5, 4, 7, 10, 10, 8, 9, 3, 3, 7, 5, 6, 5, 4, 5, 4, 6, 10, 10, 8, 5, 8, 5, 1, 4, 5, 8, 7, 10, 6, 6, 6, 5, 10, 8, 1, 5, 2, 6, 3, 4
      | 9, 5, 7, 8, 3, 9, 7, 7, 8, 1, 2, 4, 8, 2, 9, 7, 5, 2, 3, 1, 9, 10, 6, 4, 10, 8, 10, 9, 1, 1, 3, 5, 10, 10, 5, 10, 5, 9, 7, 2, 9, 2, 1, 4, 6, 9, 4, 5, 8, 2, 5, 10, 3, 3, 1, 5, 7, 8, 5, 2
      | 5, 2, 9, 8, 2, 1, 4, 2, 5, 2, 9, 4, 6, 4, 3, 6, 6, 8, 9, 8, 4, 5, 5, 1, 5, 5, 9, 10, 4, 6, 10, 5, 7, 1, 8, 9, 7, 6, 10, 5, 9, 8, 6, 10, 2, 5, 6, 2, 10, 4, 10, 2, 7, 3, 9, 4, 1, 6, 7, 3 |];
suc = [ { 5, 15 },
       { 4 },
       { 6, 12, 17 },
       { 10, 16, 26 },
       { 33 },
       { 7, 9, 11 },
       { 8, 13, 19 },
       { 28 },
       { 21 },
       { 31 },
       { 28, 36 },
       { 55 },
       { 14, 18, 40 },
       { 23, 34 },
       { 53 },
       { 48 },
       { 25, 29, 32 },
       { 20, 30, 39 },
       { 22, 40 },
       { 24, 33 },
       { 27 },
       { 47, 56 },
       { 46 },
       { 42, 57 },
       { 43 },
       { 35, 54 },
       { 38, 44, 59 },
       { 31, 46 },
       { 36, 43 },
       { 58 },
       { 54 },
       { 35 },
       { 34, 42, 44 },
       { 37, 50 },
       { 38 },
       { 45 },
       { 43 },
       { 45 },
       { 53 },
       { 41 },
       { 52 },
       { 45 },
       { 60 },
       { 46 },
       { 49 },
       { 51 },
       { 49 },
       { 53, 58 },
       { 51 },
       { 55 },
       { 52 },
       { 55 },
       { 60 },
       { 58 },
       { 60 },
       { 59 },
       { 59 },
       {  },
       {  },
       {  } ];
